2
100 2
73
20 1 7
21 1 4
22 1 5
23 1 1
26 1 1
27 1 1
28 1 2
30 1 3
31 1 3
32 1 3
33 1 4
34 1 3
35 1 5
36 1 2
37 1 6
38 1 2
39 1 2
40 1 1
41 1 2
42 1 4
43 1 4
44 1 3
45 1 5
46 1 3
47 1 3
49 1 2
50 1 3
52 1 5
54 1 3
56 1 4
57 1 2
58 1 3
59 1 2
60 1 1
61 1 4
62 1 5
63 1 2
64 1 2
65 1 6
67 1 1
68 1 2
69 1 3
70 1 2
71 1 2
72 1 1
73 1 3
74 1 3
75 1 2
76 1 2
77 1 4
78 1 8
79 1 3
80 1 1
81 1 2
82 1 1
83 1 1
84 1 2
85 1 2
86 1 2
87 1 2
88 1 3
89 1 1
90 1 4
91 1 2
92 1 1
93 1 2
94 1 2
95 1 1
96 1 3
97 1 3
98 1 4
99 1 1
100 1 1
